NAME : tsp_79_sol.txt
COMMENT : OR-Tools Guided Local Search
TYPE : TOUR
DIMENSION : 50
COST : 5799
STATUS : ROUTING_SUCCESS
GAP : 0.00% (Reference Solution)
TOUR_SECTION
1
23
12
33
26
8
40
2
3
28
9
15
49
10
24
31
44
39
27
45
47
36
22
30
29
32
6
19
13
38
17
25
48
4
43
42
18
7
20
37
11
46
21
34
50
14
41
5
16
35
-1
